NAME : TarjanExample
COMMENT: Generated by a tool
TYPE : CVRP
DIMENSION : 3
EDGE_WEIGHT_TYPE : EXPLICIT
EDGE_WEIGHT_FORMAT: FULL_MATRIX
DISPLAY_DATA_TYPE: TWOD_DISPLAY
CAPACITY : 10
EDGE_WEIGHT_SECTION
	   0	   1	   1
	   1	   0	   2
	   1	   3	   0
DEMAND_SECTION
1 0
2 1
3 1
DEPOT_SECTION
1
-1
EOF
